NAME : netgen18-5_23
COMMENT : Generated using the function generateClusteredNetwork from the R-package netgen (Bossek,2015) - Number of clusters: 5
TYPE : TSP
DIMENSION : 18
EDGE_WEIGHT_TYPE : EUC_2D
NODE_COORD_SECTION
1 20.9439131886 82.2055712981
2 30.9672881067 72.8679872058
3 15.7715049176 79.8228412787
4 98.6856317708 0.0250572507
5 99.2252558455 8.5415477351
6 97.4797120015 12.0746168601
7 92.4081707547 11.0492943845
8 94.2914813786 0.164004861
9 94.1604488067 13.9503142976
10 20.2992561225 59.6377361103
11 7.8396397209 51.9346236337
12 3.7905863309 63.1870266574
13 66.8876503018 99.7596169573
14 66.8835530403 95.9949196853
15 71.6671180456 85.8458500977
16 54.8947607887 22.4369648082
17 54.2167371334 17.8147721295
18 53.5296873523 18.0298048881
EOF
